m = 5; % number of couriers
n = 6; % number of packages

l = [16, 12, 17, 8, 12]; % maximum carriable weight per courier
s = [9, 3, 9, 6, 9, 4]; % weight of each package

D = % distance matrix 
	 [| 4, 4, 6, 3, 6, 10, 4
	 | 8, 12, 3, 5, 10, 12, 4
	 | 12, 5, 5, 5, 3, 4, 11
	 | 10, 4, 5, 3, 12, 10, 3
	 | 6, 4, 5, 4, 6, 8, 5
	 | 11, 8, 7, 8, 10, 11, 11
	 | 10, 10, 10, 7, 12, 11, 10
	 |];